pymatgen with grid density = 2001 / number of atoms
0
Gamma
9 9 1
