POSCAR file written by OVITO Basic 3.11.1
1
2.815 0.0 0.0
-1.4075 2.4378615117 0.0
0.0 0.0 14.052
Li Co O 
3 3 6 
Cartesian
0.0 0.0 0.0
1.4075 0.8126205039 4.684
5.5511151231e-16 1.6252410078 9.368
0.0 0.0 7.026
1.4075 0.8126205039 11.71
5.5511151231e-16 1.6252410078 2.342
0.0 0.0 3.6760032
0.0 0.0 10.3759968
1.4075 0.8126205039 8.3600032
1.4075 0.8126205039 1.0079968
5.5511151231e-16 1.6252410078 13.0440032
5.5511151231e-16 1.6252410078 5.6919968
