Se 
 1.0000000000000000
    -0.3174999999999994   -0.1410999999999998    0.0000000000000000
     0.3174999999999999   -0.1411000000000000    0.0000000000000000
     0.0000000000000000    0.0000000000000000   10.0000000000000000
 Se 
 123
Cartesian
 -0.1055999999999909 -0.1055999999999967  4.9999999999999991
 -0.0350999999999924 -0.0348999999999968  4.9999999999999991
 -0.1409999999999949 -0.0703999999999979  4.9999999999999991
  0.1765000000000053 -0.1055999999999979  4.9999999999999991
 -0.0351999999999938 -0.1407999999999974  4.9999999999999991
  0.0707000000000080 -0.1759999999999969  4.9999999999999991
  0.1765000000000061 -0.1406999999999973  4.9999999999999991
 -0.1056999999999910 -0.1404999999999968  4.9999999999999991
  0.1060000000000101 -0.2109999999999955  4.9999999999999991
  0.1061000000000118 -0.1051999999999947  4.9999999999999991
 -0.0351999999999925 -0.2111999999999968  4.9999999999999991
 -0.0703999999999950 -0.0350999999999982  4.9999999999999991
  0.1766000000000046 -0.1056999999999980  4.9999999999999991
  0.0707000000000107 -0.1051999999999949  4.9999999999999991
 -0.1408999999999888 -0.0699999999999953  4.9999999999999991
 -0.0703999999999916 -0.2111999999999968  4.9999999999999991
  0.0354000000000085 -0.0699999999999960  4.9999999999999991
  0.1765000000000063 -0.1407999999999976  4.9999999999999991
  0.2118000000000093 -0.1758999999999962  4.9999999999999991
 -0.1054999999999890 -0.1758999999999956  4.9999999999999991
  0.1766000000000102 -0.1757999999999955  4.9999999999999991
 -0.2114999999999934 -0.1760999999999971  4.9999999999999991
  0.0707000000000078 -0.1053999999999961  4.9999999999999991
 -0.0703999999999883 -0.2108999999999957  4.9999999999999991
  0.0355000000000105 -0.1404999999999958  4.9999999999999991
  0.1060000000000074 -0.1055999999999971  4.9999999999999991
  0.0708000000000115 -0.0346999999999952  4.9999999999999991
 -0.1760999999999876 -0.1052999999999948  4.9999999999999991
  0.2118000000000076 -0.1407999999999970  4.9999999999999991
 -0.1408999999999913 -0.0700999999999968  4.9999999999999991
  0.2471000000000108 -0.1403999999999954  4.9999999999999991
  0.0355000000000115 -0.2111999999999957  4.9999999999999991
  0.1061000000000101 -0.1406999999999957  4.9999999999999991
 -0.1409999999999951 -0.1408999999999979  4.9999999999999991
 -0.1408999999999895 -0.1758999999999961  4.9999999999999991
 -0.0703999999999939 -0.1761999999999975  4.9999999999999991
 -0.1408999999999913 -0.1054999999999964  4.9999999999999991
  0.0707000000000100 -0.0346999999999956  4.9999999999999991
  0.1413000000000061 -0.1056999999999976  4.9999999999999991
  0.0355000000000078 -0.1408999999999969  4.9999999999999991
  0.1059000000000062 -0.1407999999999978  4.9999999999999991
 -0.1055999999999922 -0.1761999999999973  4.9999999999999991
  0.0354000000000076 -0.1758999999999967  4.9999999999999991
  0.0001000000000062 -0.2819999999999973  4.9999999999999991
 -0.0703999999999911 -0.2463999999999962  4.9999999999999991
 -0.2115999999999979 -0.1762999999999992  4.9999999999999991
 -0.0351999999999950 -0.1055999999999982  4.9999999999999991
 -0.0349999999999890 -0.1405999999999960  4.9999999999999991
  0.2471000000000113 -0.1403999999999947  4.9999999999999991
 -0.2115999999999921 -0.1404999999999972  4.9999999999999991
  0.2823000000000064 -0.1405999999999974  4.9999999999999991
 -0.0703999999999963 -0.2467999999999984  4.9999999999999991
  0.1413000000000080 -0.0702999999999969  4.9999999999999991
  0.2471000000000113 -0.1403999999999947  4.9999999999999991
  0.0002000000000128 -0.0345999999999944  4.9999999999999991
  0.0708000000000103 -0.1053999999999961  4.9999999999999991
  0.1414000000000084 -0.1054999999999966  4.9999999999999991
 -0.2466999999999907 -0.1407999999999965  4.9999999999999991
  0.1767000000000103 -0.1053999999999961  4.9999999999999991
 -0.2114999999999915 -0.1053999999999965  4.9999999999999991
  0.0708000000000126 -0.1403999999999944  4.9999999999999991
  0.1059000000000034 -0.1761999999999989  4.9999999999999991
  0.0707000000000112 -0.0697999999999961  4.9999999999999991
  0.0001000000000088 -0.1051999999999964  4.9999999999999991
  0.0002000000000074 -0.1408999999999969  4.9999999999999991
 -0.1056999999999893 -0.1755999999999955  4.9999999999999991
 -0.0703999999999961 -0.1409999999999983  4.9999999999999991
 -0.1055999999999869 -0.1403999999999948  4.9999999999999991
  0.2119000000000091 -0.1052999999999963  4.9999999999999991
  0.0355000000000092 -0.1054999999999964  4.9999999999999991
 -0.2467999999999937 -0.1408999999999974  4.9999999999999991
 -0.2114999999999902 -0.1757999999999954  4.9999999999999991
  0.0706000000000102 -0.2461999999999969  4.9999999999999991
 -0.0351999999999937 -0.1759999999999971  4.9999999999999991
 -0.0702999999999871 -0.1051999999999954  4.9999999999999991
  0.0708000000000049 -0.1056999999999978  4.9999999999999991
  0.2824000000000111 -0.1403999999999950  4.9999999999999991
  0.0003000000000148 -0.1402999999999939  4.9999999999999991
 -0.1057999999999942 -0.2112999999999981  4.9999999999999991
 -0.2115999999999973 -0.1762999999999988  4.9999999999999991
  0.1060000000000095 -0.1756999999999958  4.9999999999999991
 -0.1407999999999910 -0.1761999999999964  4.9999999999999991
 -0.1410999999999916 -0.1051999999999959  4.9999999999999991
  0.0353000000000030 -0.2467999999999988  4.9999999999999991
  0.1059000000000021 -0.1762999999999991  4.9999999999999991
 -0.0704999999999890 -0.2108999999999955  4.9999999999999991
  0.2825000000000068 -0.1409999999999971  4.9999999999999991
  0.1061000000000083 -0.1055999999999964  4.9999999999999991
  0.0354000000000033 -0.0704999999999986  4.9999999999999991
  0.0708000000000131 -0.1403999999999946  4.9999999999999991
  0.0355000000000126 -0.0344999999999949  4.9999999999999991
 -0.0703999999999893 -0.2461999999999956  4.9999999999999991
 -0.2113999999999862 -0.1404999999999947  4.9999999999999991
  0.2117000000000080 -0.1757999999999970  4.9999999999999991
  0.0001000000000037 -0.1409999999999985  4.9999999999999991
  0.1059000000000035 -0.0703999999999985  4.9999999999999991
  0.1060000000000062 -0.1760999999999971  4.9999999999999991
  0.1413000000000087 -0.1406999999999965  4.9999999999999991
 -0.0352999999999936 -0.0347999999999972  4.9999999999999991
  0.1059000000000093 -0.1756999999999968  4.9999999999999991
 -0.1054999999999897 -0.0701999999999956  4.9999999999999991
  0.0355000000000065 -0.0703999999999973  4.9999999999999991
  0.0354000000000049 -0.1055999999999978  4.9999999999999991
 -0.0350999999999954 -0.0704999999999982  4.9999999999999991
 -0.1408999999999918 -0.1054999999999967  4.9999999999999991
  0.0355000000000122 -0.1404999999999946  4.9999999999999991
  0.0002000000000131 -0.2813999999999951  4.9999999999999991
 -0.0703999999999919 -0.2465999999999968  4.9999999999999991
 -0.1408999999999947 -0.1056999999999978  4.9999999999999991
 -0.0350999999999885 -0.2108999999999960  4.9999999999999991
  0.1766000000000104 -0.1405999999999960  4.9999999999999991
  0.1766000000000041 -0.1762999999999983  4.9999999999999991
  0.0003000000000156 -0.2814999999999938  4.9999999999999991
 -0.1407999999999907 -0.0701999999999967  4.9999999999999991
  0.2470000000000011 -0.1410999999999995  4.9999999999999991
 -0.0701999999999871 -0.2110999999999955  4.9999999999999991
 -0.2115999999999955 -0.1407999999999983  4.9999999999999991
 -0.0351999999999934 -0.0347999999999972  4.9999999999999991
  0.0706000000000065 -0.0701999999999974  4.9999999999999991
  0.2118000000000046 -0.1761999999999982  4.9999999999999991
 -0.0350999999999907 -0.0348999999999961  4.9999999999999991
  0.0709000000000087 -0.0703999999999965  4.9999999999999991
 -0.1055999999999912 -0.1055999999999965  4.9999999999999991
